100
39 19
81 34
1 33
84 1
2 33
79 3
83 34
14 69
39 2
1 51
75 44
51 91
94 81
80 40
19 48
68 75
52 81
28 40
84 64
9 21
54 45
10 39
36 27
79 30
11 25
72 97
56 81
86 68
12 87
36 57
38 4
20 50
21 12
17 90
93 8
44 57
50 24
18 92
40 48
80 36
75 21
32 27
75 79
48 26
44 93
96 12
78 96
13 66
35 71
54 86
79 42
50 22
73 10
0 87
89 49
14 21
5 70
66 8
88 59
0 31
39 73
59 77
54 68
34 57
51 56
6 94
72 98
59 75
39 83
50 71
85 2
89 24
36 20
85 1
34 97
79 1
14 76
10 46
29 19
8 3
83 69
27 5
87 60
46 52
28 23
16 92
86 34
16 30
36 91
22 97
35 85
28 92
15 50
61 81
85 71
70 62
53 47
30 8
52 96
23 70
